NAME : XML100_1256_27
DIMENSION : 101
NB_CLUSTERS : 3
CLUSTERING_ALG : KMedoids
CLUSTERING_PARAMS : k(2)
CLUSTERS
1 0
2 2 3 7 8 11 14 17 18 19 20 22 24 27 35 37 38 40 41 43 52 57 58 59 61 67 68 71 73 75 78 81 82 83 84 85 87 93 95 99
3 1 4 5 6 9 10 12 13 15 16 21 23 25 26 28 29 30 31 32 33 34 36 39 42 44 45 46 47 48 49 50 51 53 54 55 56 60 62 63 64 65 66 69 70 72 74 76 77 79 80 86 88 89 90 91 92 94 96 97 98 100
EOF